12 20
2 5 7 10 12
1 2 6 8 12
4 5 7 8 10
4 6 7 9
2 4 6 9
2 3 4 6 9
2 3 6 7 8
1 3 7 9 12
2 4 8 9 10
1 3 7 11
2 3 4 7 11
5 6 7 8 10
1 3 6 8 10
1 2 9 10 11
1 5 8 9
5 6 7 10
4 5 9 11 12
4 5 6 8
2 3 5 7
2 4 5 7 9
5 4 4 7 6 6 7 6 7 4 7 7 7 5 6 6 6 4 6 6
